c nombre: 1
c densidad: 0.1
p edges 50 107
e 1 22
e 1 50
e 2 5
e 2 10
e 2 11
e 2 13
e 2 25
e 3 47
e 3 49
e 4 13
e 4 16
e 4 17
e 4 23
e 4 30
e 4 32
e 4 33
e 4 46
e 5 10
e 5 25
e 5 34
e 6 7
e 6 19
e 6 37
e 6 41
e 7 10
e 8 28
e 8 34
e 9 19
e 9 26
e 9 33
e 9 34
e 9 40
e 9 41
e 10 22
e 10 23
e 10 35
e 11 18
e 11 32
e 11 44
e 11 45
e 12 13
e 12 14
e 13 37
e 13 45
e 14 18
e 14 26
e 14 27
e 15 43
e 15 47
e 15 49
e 16 50
e 17 25
e 17 34
e 17 40
e 17 49
e 18 29
e 18 35
e 18 38
e 19 24
e 19 41
e 20 21
e 20 31
e 20 32
e 20 33
e 20 40
e 20 44
e 20 45
e 20 49
e 21 27
e 21 32
e 21 39
e 21 45
e 22 28
e 22 42
e 22 50
e 23 27
e 23 33
e 23 34
e 24 26
e 24 40
e 26 27
e 26 33
e 27 30
e 28 29
e 28 36
e 29 41
e 30 33
e 30 34
e 31 44
e 31 45
e 31 46
e 31 49
e 32 37
e 32 47
e 33 43
e 33 47
e 34 37
e 34 48
e 35 37
e 35 44
e 35 47
e 38 42
e 39 48
e 40 45
e 41 50
e 46 47
e 47 48
